27 3
4 6 4
0 0 0 0 25 2 3 4 5 6 7 8 9 10 11 12 13 14 15 16 17 18 19 20 21 22 23 24 25 26
4 2 3 1 4 27 23 6 8
1 1 0 2 3 27 10 9
2 2 2 2 2 27 11
5 2 3 2 6 27 8 25 8 15 11
3 0 2 0 4 27 16 13 22
2 2 0 2 5 27 26 22 25 18
2 2 3 2 4 27 23 16 24
4 2 1 0 2 27 22
5 1 1 1 4 27 22 17 25
5 0 3 0 1 27
1 1 0 2 3 27 21 21
1 2 2 1 4 27 20 25 14
5 2 0 1 2 27 15
1 0 2 0 4 27 19 18 22
2 2 0 1 3 27 22 23
4 1 0 2 1 27
4 2 1 2 4 27 23 24 26
1 1 3 0 1 27
2 0 1 1 3 27 22 25
1 0 3 0 1 27
5 0 0 1 2 27 25
2 2 2 2 3 27 24 24
4 2 3 2 1 27
2 0 1 1 2 27 26
4 1 1 2 1 27
0 0 0 0 0
